<number of tasks>
100

<cycle time>
1000

<order strength>
0.595


<task times>
1 281
2 209
3 448
4 242
5 41
6 226
7 201
8 88
9 255
10 164
11 390
12 110
13 139
14 268
15 288
16 209
17 130
18 518
19 519
20 157
21 619
22 273
23 192
24 99
25 230
26 154
27 176
28 84
29 85
30 281
31 300
32 35
33 128
34 51
35 388
36 365
37 264
38 273
39 358
40 102
41 337
42 33
43 263
44 65
45 45
46 541
47 408
48 296
49 459
50 49
51 131
52 240
53 382
54 266
55 248
56 286
57 127
58 467
59 128
60 117
61 514
62 203
63 101
64 30
65 90
66 135
67 238
68 305
69 185
70 324
71 164
72 226
73 39
74 523
75 556
76 327
77 324
78 221
79 135
80 224
81 491
82 221
83 95
84 266
85 144
86 269
87 70
88 110
89 176
90 249
91 75
92 289
93 22
94 580
95 67
96 248
97 121
98 134
99 62
100 331

<precedence relations>
1,3
2,4
2,5
2,6
2,7
2,8
2,9
3,11
4,13
5,15
6,10
6,14
6,16
6,17
6,18
7,12
7,16
7,18
8,51
8,61
9,16
9,17
9,18
10,19
11,20
12,21
13,23
14,24
15,26
16,22
16,25
16,27
17,27
18,27
19,33
20,34
21,29
22,30
23,33
24,31
25,32
26,33
27,28
27,33
27,34
27,35
27,36
28,38
29,37
30,39
31,41
32,42
33,41
33,42
33,43
34,41
34,42
34,43
35,40
35,41
35,42
35,43
36,41
36,42
36,43
37,44
38,49
39,45
40,46
41,47
41,48
41,49
41,50
41,51
42,51
42,56
42,57
43,49
43,50
43,51
44,52
45,55
46,56
47,53
48,54
49,55
49,56
50,57
50,80
50,96
51,58
51,63
52,59
53,61
54,60
55,61
55,62
55,63
55,64
56,61
56,62
56,63
56,64
57,88
57,92
58,62
58,64
59,65
60,66
61,67
61,68
62,69
63,71
63,72
63,73
63,74
64,66
65,70
66,71
66,72
66,74
67,73
67,74
68,92
68,97
69,72
69,74
69,78
70,76
71,75
71,77
71,79
71,80
71,81
71,92
72,77
72,79
72,80
72,83
73,78
73,79
73,80
73,96
74,77
74,81
74,84
74,87
75,82
76,83
78,99
79,84
80,98
81,89
81,96
82,85
83,87
83,89
83,90
83,92
84,86
84,88
84,91
84,95
85,93
86,94
87,96
88,97
88,99
90,95
91,98
92,95
93,97
94,97
95,98
98,99
98,100

<end>
